400
400
320
320
320
319
318
316
315
315
315
315
313
312
312
311
311
311
310
310
310
308
308
307
306
306
306
306
304
303
303
301
299
298
298
298
296
296
296
296
296
296
296
295
295
295
295
295
295
294
294
294
294
293
293
293
293
292
292
292
291
289
289
289
288
288
287
286
286
286
285
284
283
282
282
282
280
280
279
279
278
278
276
275
273
273
271
270
269
269
267
267
266
265
265
263
263
263
263
262
260
260
260
259
259
258
257
257
256
256
255
255
255
253
253
252
251
250
250
250
250
249
249
247
247
247
247
247
247
246
246
245
242
242
240
239
239
238
238
237
236
236
235
234
233
233
233
232
232
231
231
231
230
229
228
228
227
227
226
226
226
225
225
225
225
223
223
222
221
221
221
221
221
219
219
218
218
217
217
217
217
216
215
214
213
213
212
212
212
212
211
211
211
211
210
210
210
209
208
207
207
207
206
206
206
206
206
205
204
204
204
203
201
201
201
201
200
200
199
198
198
198
197
196
195
195
194
194
193
193
192
192
192
191
191
191
191
190
189
187
186
186
186
185
185
184
184
184
184
182
182
181
181
180
179
179
179
178
178
178
177
176
175
175
174
174
173
173
172
172
172
171
171
168
168
167
167
167
165
164
163
162
161
161
161
160
160
160
159
159
159
158
158
156
154
154
153
153
153
152
150
149
149
148
148
148
147
144
143
143
143
141
140
140
140
140
139
139
137
137
135
135
135
133
133
133
133
132
132
132
131
129
129
129
128
127
127
125
125
125
125
124
124
123
123
122
121
120
119
119
119
118
117
117
115
113
113
113
112
111
111
109
109
109
108
107
107
105
103
103
102
101
101
100
99
99
99
99
99
98
98
98
96
96
96
95
92
92
91
90
90
90
89
89
88
88
87
86
85
85
82
80
